; QueryHash 272387683524557670
(set-logic QF_AUFBV )
(declare-fun n_args () (Array (_ BitVec 32) (_ BitVec 8) ) )
(assert (let ( (?B1 (concat  (select  n_args (_ bv3 32) ) (concat  (select  n_args (_ bv2 32) ) (concat  (select  n_args (_ bv1 32) ) (select  n_args (_ bv0 32) ) ) ) ) ) ) (and  (and  (and  (and  (and  (bvsle  (_ bv1 32) ?B1 ) (bvslt  ?B1 (_ bv6 32) ) ) (=  false (=  (_ bv1 32) ?B1 ) ) ) (=  false (=  (_ bv2 32) ?B1 ) ) ) (=  false (=  (_ bv3 32) ?B1 ) ) ) (=  false (=  (_ bv4 32) ?B1 ) ) ) ) )
(check-sat)
(exit)

; Assignments 11129 ms
; { "arg00": [0, 0, 0, 0, 0, 0, 1, 0, 0, 0, 0] }
; { "arg00": [0, 0, 0, 0, 0, 1, 0, 0, 0, 0, 0] }
; { "arg00": [0, 0, 0, 0, 0, 101, 0, 0, 0, 0, 0] }
; { "arg00": [0, 0, 0, 0, 0, 110, 0, 0, 0, 0, 0] }
; { "arg00": [0, 0, 0, 0, 0, 112, 0, 0, 0, 0, 0] }
; { "arg00": [0, 0, 0, 0, 0, 69, 0, 0, 0, 0, 0] }
; { "arg00": [0, 0, 0, 0, 1, 0, 0, 0, 0, 0, 0] }
; { "arg00": [0, 0, 0, 0, 101, 0, 0, 0, 0, 0, 0] }
; { "arg00": [0, 0, 0, 0, 108, 0, 0, 0, 0, 0, 0] }
; { "arg00": [0, 0, 0, 0, 110, 0, 0, 0, 0, 0, 0] }
; { "arg00": [0, 0, 0, 0, 114, 0, 0, 0, 0, 0, 0] }
; { "arg00": [0, 0, 0, 0, 69, 0, 0, 0, 0, 0, 0] }
; { "arg00": [0, 0, 0, 1, 0, 0, 0, 0, 0, 0, 0] }
; { "arg00": [0, 0, 0, 101, 0, 0, 0, 0, 0, 0, 0] }
; { "arg00": [0, 0, 0, 69, 0, 0, 0, 0, 0, 0, 0] }
; { "model_version": [1, 0, 0, 0] }
; { "n_args": [1, 0, 0, 0] }
; { "n_args": [2, 0, 0, 0] }
; { "n_args": [3, 0, 0, 0] }
; { "n_args": [4, 0, 0, 0] }
; { "n_args": [5, 0, 0, 0] }
